\ENCODING=ISO-8859-1
\Problem name: 

Minimize
 obj1: x0 + x1 + x11 + x46 + x121 + x251
Subject To
 R0#0:    10 x0 + 6 x1 + 3 x11 + x46 >= 10
 R4#1:    4 x1 + 6 x11 + 6 x46 + 4 x121 >= 25
 R35#2:   x11 + 3 x46 + 6 x121 + 10 x251 >= 10
 C297#3:  9 x0 + 9 x1 + 9 x11 + 9 x46 + 9 x121 + 9 x251 >= 41
 C298#4:  8 x0 + 8 x1 + 8 x11 + 8 x46 + 8 x121 + 8 x251 >= 37
 C299#5:  7 x0 + 7 x1 + 7 x11 + 7 x46 + 7 x121 + 7 x251 >= 33
 C300#6:  6 x0 + 6 x1 + 6 x11 + 6 x46 + 6 x121 + 6 x251 >= 28
 C301#7:  6 x0 + 6 x1 + 6 x11 + 6 x46 + 6 x121 + 6 x251 >= 29
 C302#8:  4 x0 + 4 x1 + 4 x11 + 4 x46 + 4 x121 + 4 x251 >= 19
 C303#9:  5 x0 + 5 x1 + 5 x11 + 5 x46 + 5 x121 + 5 x251 >= 24
 C304#10: 5 x0 + 5 x1 + 5 x11 + 5 x46 + 5 x121 + 5 x251 >= 25
 C305#11: 2 x0 + 2 x1 + 2 x11 + 2 x46 + 2 x121 + 2 x251 >= 10
 C306#12: 3 x0 + 3 x1 + 3 x11 + 3 x46 + 3 x121 + 3 x251 >= 15
 C307#13: 4 x0 + 4 x1 + 4 x11 + 4 x46 + 4 x121 + 4 x251 >= 20
 C5#14:   6 x0 + 4 x1 + 2 x11 + x46 + x121 + x251 >= 8
 C5#15:   200 x0 + 196 x1 + 183 x11 + 163 x46 + 136 x121 + 100 x251 >= 800
 C5#16:   100 x0 + 70 x1 + 49 x11 + 34 x46 + 25 x121 + 25 x251 >= 200
 C5#17:   100 x0 + 136 x1 + 163 x11 + 183 x46 + 196 x121 + 200 x251 >= 800
 C5#18:   25 x0 + 25 x1 + 34 x11 + 49 x46 + 70 x121 + 100 x251 >= 200
 C5#19:   x0 + x1 + x11 + 2 x46 + 4 x121 + 6 x251 >= 8
 C5#20:   8 x0 + 6 x1 + 4 x11 + 3 x46 + 3 x121 + 3 x251 >= 18
 C5#21:   400 x0 + 396 x1 + 383 x11 + 363 x46 + 336 x121 + 300 x251 >= 1800
 C5#22:   150 x0 + 120 x1 + 99 x11 + 84 x46 + 75 x121 + 75 x251 >= 450
 C5#23:   300 x0 + 336 x1 + 363 x11 + 383 x46 + 396 x121 + 400 x251 >= 1800
 C5#24:   75 x0 + 75 x1 + 84 x11 + 99 x46 + 120 x121 + 150 x251 >= 450
 C5#25:   3 x0 + 3 x1 + 3 x11 + 4 x46 + 6 x121 + 8 x251 >= 18
Bounds
 0 <= x0 <= 1
 0 <= x1 <= 25
 0 <= x11 <= 100
 0 <= x46 <= 100
 0 <= x121 <= 25
 0 <= x251 <= 1
End
